\ Model ChooChoo
\ LP format - for model browsing. Use MPS format to capture full model detail.
Minimize
  22 Arc(1,2) + 6 Arc(1,5) + 22 Arc(2,1) + 2 Arc(2,3) + 3 Arc(3,4)
   + 5 Arc(3,6) + 9 Arc(4,1) + 13 Arc(4,3) + 25 Arc(5,4) + 3 Arc(5,6)
   + 9 Arc(6,2) + 17 Arc(6,5) + 0 y(2,1) + 0 y(2,3) + 0 y(3,4) + 0 y(3,6)
   + 0 y(4,1) + 0 y(4,3) + 0 y(5,4) + 0 y(5,6) + 0 b(1) + 0 b(2) + 0 b(3)
   + 0 b(4) + 0 b(5) + 0 b(6)
Subject To
 c1(1): Arc(1,2) + Arc(1,5) <= 1
 c1(2): Arc(2,1) + Arc(2,3) <= 1
 c1(3): Arc(3,4) + Arc(3,6) <= 1
 c1(4): Arc(4,1) + Arc(4,3) <= 1
 c1(5): Arc(5,4) + Arc(5,6) <= 1
 c1(6): Arc(6,2) + Arc(6,5) <= 1
 c1(1): Arc(1,2) + Arc(1,5) >= 1
 c1(2): Arc(2,1) + Arc(2,3) >= 1
 c1(3): Arc(3,4) + Arc(3,6) >= 1
 c1(4): Arc(4,1) + Arc(4,3) >= 1
 c1(5): Arc(5,4) + Arc(5,6) >= 1
 c1(6): Arc(6,2) + Arc(6,5) >= 1
 c2(1): Arc(1,2) + Arc(1,5) - Arc(2,1) - Arc(4,1) = 0
 c2(2): - Arc(1,2) + Arc(2,1) + Arc(2,3) - Arc(6,2) = 0
 c2(3): - Arc(2,3) + Arc(3,4) + Arc(3,6) - Arc(4,3) = 0
 c2(4): - Arc(3,4) + Arc(4,1) + Arc(4,3) - Arc(5,4) = 0
 c2(5): - Arc(1,5) + Arc(5,4) + Arc(5,6) - Arc(6,5) = 0
 c2(6): - Arc(3,6) - Arc(5,6) + Arc(6,2) + Arc(6,5) = 0
 c3(1): a(1) <= 48
 c3(2): a(2) <= 48
 c3(3): a(3) <= 48
 c3(4): a(4) <= 48
 c3(5): a(5) <= 48
 c3(6): a(6) <= 48
 c4(1): 100 y(1,2) + a(2) <= 102
 c4(2): 100 y(1,5) + a(5) <= 101
 c4(11): 100 y(6,2) + a(2) <= 102
 c4(12): 100 y(6,5) + a(5) <= 101
 c5(1): - 100 y(1,2) + a(2) >= -98
 c5(2): - 100 y(1,5) + a(5) >= -99
 c5(11): - 100 y(6,2) + a(2) >= -98
 c5(12): - 100 y(6,5) + a(5) >= -99
 c6(1): 100 Arc(1,2) - 100 y(1,2) - a(1) + a(2) <= 124
 c6(2): 100 Arc(1,5) - 100 y(1,5) - a(1) + a(5) <= 107
 c6(11): 100 Arc(6,2) - 100 y(6,2) + a(2) - a(6) <= 111
 c6(12): 100 Arc(6,5) - 100 y(6,5) + a(5) - a(6) <= 118
 c7(1): - 100 Arc(1,2) + 100 y(1,2) - a(1) + a(2) >= -76
 c7(2): - 100 Arc(1,5) + 100 y(1,5) - a(1) + a(5) >= -93
 c7(11): - 100 Arc(6,2) + 100 y(6,2) + a(2) - a(6) >= -89
 c7(12): - 100 Arc(6,5) + 100 y(6,5) + a(5) - a(6) >= -82
 c8(3): 100 Arc(2,1) + a(1) - a(2) <= 124
 c8(4): 100 Arc(2,3) - a(2) + a(3) <= 106
 c8(5): 100 Arc(3,4) - a(3) + a(4) <= 107
 c8(6): 100 Arc(3,6) - a(3) + a(6) <= 106
 c8(7): 100 Arc(4,1) + a(1) - a(4) <= 111
 c8(8): 100 Arc(4,3) + a(3) - a(4) <= 117
 c8(9): 100 Arc(5,4) + a(4) - a(5) <= 129
 c8(10): 100 Arc(5,6) - a(5) + a(6) <= 104
 c9(3): - 100 Arc(2,1) + a(1) - a(2) >= -76
 c9(4): - 100 Arc(2,3) - a(2) + a(3) >= -94
 c9(5): - 100 Arc(3,4) - a(3) + a(4) >= -93
 c9(6): - 100 Arc(3,6) - a(3) + a(6) >= -94
 c9(7): - 100 Arc(4,1) + a(1) - a(4) >= -89
 c9(8): - 100 Arc(4,3) + a(3) - a(4) >= -83
 c9(9): - 100 Arc(5,4) + a(4) - a(5) >= -71
 c9(10): - 100 Arc(5,6) - a(5) + a(6) >= -96
 c10(1): Arc(1,2) - y(1,2) >= 0
 c10(2): Arc(1,5) - y(1,5) >= 0
 c10(11): Arc(6,2) - y(6,2) >= 0
 c10(12): Arc(6,5) - y(6,5) >= 0
Bounds
Binaries
 Arc(1,2) Arc(1,5) Arc(2,1) Arc(2,3) Arc(3,4) Arc(3,6) Arc(4,1) Arc(4,3)
 Arc(5,4) Arc(5,6) Arc(6,2) Arc(6,5) y(1,2) y(1,5) y(2,1) y(2,3) y(3,4)
 y(3,6) y(4,1) y(4,3) y(5,4) y(5,6) y(6,2) y(6,5)
End
